Problem:    
Rows:       256
Columns:    89 (72 integer, 72 binary)
Non-zeros:  800
Status:     INTEGER OPTIMAL
Objective:  value = 5.036962 (MINimum)

   No.   Row name        Activity     Lower bound   Upper bound
------ ------------    ------------- ------------- -------------
     1 r.5                   1005.04             0               
     2 r.6                  -998.635      -999.459               
     3 r.7                   5.03696             0               
     4 r.8                  -998.665      -998.932               
     5 r.9                   5.03696             0               
     6 r.10                 -999.019      -999.286               
     7 r.11                  1005.04             0               
     8 r.12                 -996.199      -998.517               
     9 r.13                  5.03696             0               
    10 r.14                  3.80146      -999.275               
    11 r.15                  1005.04             0               
    12 r.16                 -997.682      -998.823               
    13 r.17                  5.03696             0               
    14 r.18                 -999.393       -999.66               
    15 r.19                  1005.04             0               
    16 r.20                 -998.859       -999.28               
    17 r.21                  1005.04             0               
    18 r.22                 -999.176      -999.443               
    19 r.23                  5.03696             0               
    20 r.24                  1.36549      -999.005               
    21 r.25                  1005.04             0               
    22 r.26                 -999.733      -999.733               
    23 r.27                  5.03696             0               
    24 r.28                 0.267222      -999.673               
    25 r.29                  1005.04             0               
    26 r.30                 -994.963      -996.329               
    27 r.31                  5.03696             0               
    28 r.32                  5.03696      -989.674               
    29 r.33                  5.03696             0               
    30 r.34                  5.03696      -999.024               
    31 r.35                  1005.04             0               
    32 r.36                 -994.963      -998.765               
    33 r.37                        1             1             = 
    34 r.38                        1             1             = 
    35 r.39                        1             1             = 
    36 r.40                        1             1             = 
    37 r.41                        1             1             = 
    38 r.42                        1             1             = 
    39 r.43                        1             1             = 
    40 r.44                        1             1             = 
    41 r.45                     1001             2               
    42 r.46                    -1001         -1001               
    43 r.47                  999.616      -999.286               
    44 r.48                     1001             2               
    45 r.49                    -1001         -1001               
    46 r.50                  3002.47      -998.517               
    47 r.51                     1001             2               
    48 r.52                    -1001         -1001               
    49 r.53                  2002.44      -999.275               
    50 r.54                     1001             2               
    51 r.55                    -1001         -1001               
    52 r.56                  3000.98      -998.823               
    53 r.57                     1001             2               
    54 r.58                    -1001         -1001               
    55 r.59                  999.241       -999.66               
    56 r.60                     1001             2               
    57 r.61                    -1001         -1001               
    58 r.62                  2999.81       -999.28               
    59 r.63                        2             2               
    60 r.64                       -2         -1001               
    61 r.65                -0.541306      -999.443               
    62 r.66                     1000             2               
    63 r.67                    -1000         -1001               
    64 r.68                  3000.03      -999.005               
    65 r.69                 -998.902      -999.459               
    66 r.70                 -998.932      -998.932               
    67 r.71                 -998.902      -999.459               
    68 r.72                 -998.932      -998.932               
    69 r.73                 -996.329      -996.329               
    70 r.74                  3.67147      -989.674               
    71 r.75                  3.70182      -996.329               
    72 r.76                   1003.7      -989.674               
    73 r.77                     1001             2               
    74 r.78                    -1001         -1001               
    75 r.79                  2003.67      -999.024               
    76 r.80                     1001             2               
    77 r.81                    -1001         -1001               
    78 r.82                   3003.7      -998.765               
    79 r.83                     1001             2               
    80 r.84                    -1001         -1001               
    81 r.85                  3000.38      0.541306               
    82 r.86                     1001             2               
    83 r.87                    -1001         -1001               
    84 r.88                  997.534       1.06792               
    85 r.89                     1000             2               
    86 r.90                    -1000         -1001               
    87 r.91                  3002.82      -999.275               
    88 r.92                        2             2               
    89 r.93                       -2         -1001               
    90 r.94                 -1.48323      -998.823               
    91 r.95                     1000             2               
    92 r.96                    -1000         -1001               
    93 r.97                  1999.63       -999.66               
    94 r.98                        2             2               
    95 r.99                       -2         -1001               
    96 r.100                -2.66032       -999.28               
    97 r.101                    1001             2               
    98 r.102                   -1001         -1001               
    99 r.103                 2999.84      -999.443               
   100 r.104                    1001             2               
   101 r.105                   -1001         -1001               
   102 r.106                 1997.56      -999.005               
   103 r.107                -999.286      -999.286               
   104 r.108                -996.466      -998.517               
   105 r.109                -999.286      -999.286               
   106 r.110                -996.466      -998.517               
   107 r.111                    1001             2               
   108 r.112                   -1001         -1001               
   109 r.113                 3004.06      -996.329               
   110 r.114                    1001             2               
   111 r.115                   -1001         -1001               
   112 r.116                 2001.24      -989.674               
   113 r.117                 1004.06      -999.024               
   114 r.118                 4.05596      -998.765               
   115 r.119                  1.2355      -999.024               
   116 r.120                -998.765      -998.765               
   117 r.121                    1001             2               
   118 r.122                   -1001         -1001               
   119 r.123                 1997.56      0.541306               
   120 r.124                    1001             2               
   121 r.125                   -1001         -1001               
   122 r.126                 999.017       1.06792               
   123 r.127                    1000             2               
   124 r.128                   -1000         -1001               
   125 r.129                  997.18      0.713778               
   126 r.130                       2             2               
   127 r.131                      -2         -1001               
   128 r.132                 1.48323       1.48323               
   129 r.133                 1003.19      -999.275               
   130 r.134                 1.71125      -998.823               
   131 r.135                 2.66032      -999.275               
   132 r.136                -998.823      -998.823               
   133 r.137                    1001             2               
   134 r.138                   -1001         -1001               
   135 r.139                 1997.02      -999.443               
   136 r.140                    1001             2               
   137 r.141                   -1001         -1001               
   138 r.142                 1999.05      -999.005               
   139 r.143                 3.53424      -999.275               
   140 r.144                -997.949      -998.823               
   141 r.145                 3.53424      -999.275               
   142 r.146                -997.949      -998.823               
   143 r.147                    1001             2               
   144 r.148                   -1001         -1001               
   145 r.149                 2001.24      -996.329               
   146 r.150                    1001             2               
   147 r.151                   -1001         -1001               
   148 r.152                 2002.72      -989.674               
   149 r.153                  1.2355      -999.024               
   150 r.154                -998.765      -998.765               
   151 r.155                 2.71872      -999.024               
   152 r.156                -997.281      -998.765               
   153 r.157                    1001             2               
   154 r.158                   -1001         -1001               
   155 r.159                 3000.76      0.541306               
   156 r.160                    1001             2               
   157 r.161                   -1001         -1001               
   158 r.162                 1000.19       1.06792               
   159 r.163                    1000             2               
   160 r.164                   -1000         -1001               
   161 r.165                 2000.37      0.713778               
   162 r.166                       2             2               
   163 r.167                      -2         -1001               
   164 r.168                 2.66032       1.48323               
   165 r.169                    1001             2               
   166 r.170                   -1001         -1001               
   167 r.171                 3000.22      -999.443               
   168 r.172                    1001             2               
   169 r.173                   -1001         -1001               
   170 r.174                 2000.22      -999.005               
   171 r.175                 -999.66       -999.66               
   172 r.176                -999.126       -999.28               
   173 r.177                 -999.66       -999.66               
   174 r.178                -999.126       -999.28               
   175 r.179                    1001             2               
   176 r.180                   -1001         -1001               
   177 r.181                 3004.43      -996.329               
   178 r.182                    1001             2               
   179 r.183                   -1001         -1001               
   180 r.184                  2003.9      -989.674               
   181 r.185                 1004.43      -999.024               
   182 r.186                 4.42998      -998.765               
   183 r.187                 3.89582      -999.024               
   184 r.188                -996.104      -998.765               
   185 r.189                       2             2               
   186 r.190                      -2         -1001               
   187 r.191                0.541306      0.541306               
   188 r.192                    1000             2               
   189 r.193                   -1000         -1001               
   190 r.194                  999.97       1.06792               
   191 r.195                    1001             2               
   192 r.196                   -1001         -1001               
   193 r.197                 1000.16      0.713778               
   194 r.198                    1001             2               
   195 r.199                   -1001         -1001               
   196 r.200                 2002.44       1.48323               
   197 r.201                    1001             2               
   198 r.202                   -1001         -1001               
   199 r.203                 2002.98      0.725272               
   200 r.204                    1001             2               
   201 r.205                   -1001         -1001               
   202 r.206                 2000.95        1.1771               
   203 r.207                    1001             2               
   204 r.208                   -1001         -1001               
   205 r.209                 999.783      0.339764               
   206 r.210                    1001             2               
   207 r.211                   -1001         -1001               
   208 r.212                 1999.78      0.719703               
   209 r.213                -999.443      -999.443               
   210 r.214                 1.09827      -999.005               
   211 r.215                -999.443      -999.443               
   212 r.216                 1.09827      -999.005               
   213 r.217                -995.787      -996.329               
   214 r.218                 4.21277      -989.674               
   215 r.219                -996.329      -996.329               
   216 r.220                 3.67147      -989.674               
   217 r.221                 4.21277      -999.024               
   218 r.222                -995.787      -998.765               
   219 r.223                 3.67147      -999.024               
   220 r.224                -996.329      -998.765               
   221 r.225                    1001             2               
   222 r.226                   -1001         -1001               
   223 r.227                 995.944      0.713778               
   224 r.228                    1001             2               
   225 r.229                   -1001         -1001               
   226 r.230                 1998.76       1.48323               
   227 r.231                    1001             2               
   228 r.232                   -1001         -1001               
   229 r.233                 1998.76      0.725272               
   230 r.234                    1001             2               
   231 r.235                   -1001         -1001               
   232 r.236                 1997.28        1.1771               
   233 r.237                    1001             2               
   234 r.238                   -1001         -1001               
   235 r.239                  995.57      0.339764               
   236 r.240                    1001             2               
   237 r.241                   -1001         -1001               
   238 r.242                  1996.1      0.719703               
   239 r.243                    1001             2               
   240 r.244                   -1001         -1001               
   241 r.245                    2000      -999.024               
   242 r.246                    1001             2               
   243 r.247                   -1001         -1001               
   244 r.248                    2000      -998.765               
   245 r.249                    1001             2               
   246 r.250                   -1001         -1001               
   247 r.251                 1996.33      0.541306               
   248 r.252                    1001             2               
   249 r.253                   -1001         -1001               
   250 r.254                 996.298       1.06792               
   251 r.255                    1001             2               
   252 r.256                   -1001         -1001               
   253 r.257                    2000       3.67147               
   254 r.258                    1001             2               
   255 r.259                   -1001         -1001               
   256 r.260                    2000       10.3259               

   No. Column name       Activity     Lower bound   Upper bound
------ ------------    ------------- ------------- -------------
     1 tt                    5.03696             0               
     2 s_1_1        *              1             0             1 
     3 t_1_1                 3.67147             0               
     4 s_1_7        *              1             0             1 
     5 s_2_1        *              0             0             1 
     6 t_2_1                  1003.7             0               
     7 s_2_7        *              0             0             1 
     8 s_1_2        *              0             0             1 
     9 t_1_2                 1004.06             0               
    10 s_1_8        *              0             0             1 
    11 s_2_2        *              1             0             1 
    12 t_2_2                  1.2355             0               
    13 s_2_8        *              1             0             1 
    14 s_1_3        *              0             0             1 
    15 t_1_3                  1.2355             0               
    16 s_2_3        *              1             0             1 
    17 t_2_3                 2.71872             0               
    18 s_1_4        *              0             0             1 
    19 t_1_4                 1004.43             0               
    20 s_2_4        *              1             0             1 
    21 t_2_4                 3.89582             0               
    22 s_1_5        *              1             0             1 
    23 t_1_5                 4.21277             0               
    24 s_2_5        *              0             0             1 
    25 t_2_5                 3.67147             0               
    26 s_1_6        *              1             0             1 
    27 t_1_6                 4.76974             0               
    28 s_2_6        *              0             0             1 
    29 t_2_6                 4.76974             0               
    30 t_1_7                       0             0               
    31 t_2_7                       0             0               
    32 t_1_8                       0             0               
    33 t_2_8                       0             0               
    34 r_1_1_2      *              1             0             1 
    35 u_1_1_2      *              0             0             1 
    36 r_2_1_2      *              1             0             1 
    37 u_2_1_2      *              0             0             1 
    38 r_1_1_3      *              1             0             1 
    39 u_1_1_3      *              0             0             1 
    40 r_2_1_3      *              1             0             1 
    41 u_2_1_3      *              0             0             1 
    42 r_1_1_4      *              1             0             1 
    43 u_1_1_4      *              0             0             1 
    44 r_2_1_4      *              1             0             1 
    45 u_2_1_4      *              0             0             1 
    46 r_1_1_5      *              0             0             1 
    47 u_1_1_5      *              0             0             1 
    48 r_2_1_5      *              1             0             1 
    49 u_2_1_5      *              0             0             1 
    50 r_1_1_8      *              1             0             1 
    51 u_1_1_8      *              0             0             1 
    52 r_2_1_8      *              1             0             1 
    53 u_2_1_8      *              0             0             1 
    54 r_1_2_3      *              1             0             1 
    55 u_1_2_3      *              0             0             1 
    56 r_2_2_3      *              0             0             1 
    57 u_2_2_3      *              0             0             1 
    58 r_1_2_4      *              1             0             1 
    59 u_1_2_4      *              0             0             1 
    60 r_2_2_4      *              0             0             1 
    61 u_2_2_4      *              0             0             1 
    62 r_1_2_5      *              1             0             1 
    63 u_1_2_5      *              0             0             1 
    64 r_2_2_5      *              1             0             1 
    65 u_2_2_5      *              0             0             1 
    66 r_1_2_7      *              1             0             1 
    67 u_1_2_7      *              0             0             1 
    68 r_2_2_7      *              1             0             1 
    69 u_2_2_7      *              0             0             1 
    70 r_1_3_5      *              1             0             1 
    71 u_1_3_5      *              0             0             1 
    72 r_2_3_5      *              1             0             1 
    73 u_2_3_5      *              0             0             1 
    74 r_1_3_7      *              1             0             1 
    75 u_1_3_7      *              0             0             1 
    76 r_2_3_7      *              1             0             1 
    77 u_2_3_7      *              0             0             1 
    78 r_1_4_5      *              1             0             1 
    79 u_1_4_5      *              0             0             1 
    80 r_2_4_5      *              1             0             1 
    81 u_2_4_5      *              0             0             1 
    82 r_1_4_7      *              1             0             1 
    83 u_1_4_7      *              0             0             1 
    84 r_2_4_7      *              1             0             1 
    85 u_2_4_7      *              0             0             1 
    86 r_1_7_8      *              1             0             1 
    87 u_1_7_8      *              0             0             1 
    88 r_2_7_8      *              1             0             1 
    89 u_2_7_8      *              0             0             1 

Integer feasibility conditions:

KKT.PE: max.abs.err = 4.55e-13 on row 58
        max.rel.err = 7.57e-17 on row 58
        High quality

KKT.PB: max.abs.err = 3.33e-16 on row 187
        max.rel.err = 2.16e-16 on row 187
        High quality

End of output
